1111100 AB
332 362 392 422 452 482 517 552 587 622 657 692 727 762 797 832 867 902 937 972 1007 1032 1057 1082 1117 1152 1187 1242 1297 1352
1111100 BA
380 410 448 488 518 548 581 614 649 684 719 754 789 824 859 894 929 964 999 1034 1070 1095 1120 1145 1179 1214 1249 1295 1347 1402
0000011 AB
334 394 454 514 574 634 694 754 814 874 914 954 994 1034 1074 1134 1194 1254 1304 1354
0000011 BA
380 440 504 568 628 688 749 809 869 929 969 1009 1049 1089 1129 1189 1249 1302 1351 1401
